\* Zadanie_88_STR_142BIS *\
Minimize
OBJ: 190 x_11 + 190 x_12 + 190 x_13 + 190 x_14 + 190 x_15 + 190 x_16
 + 190 x_17 + 190 x_18 + 190 x_19 + 130 x_21 + 130 x_22 + 130 x_23 + 130 x_24
 + 130 x_25 + 130 x_26 + 130 x_27 + 130 x_28 + 130 x_29 + 280 x_31 + 280 x_32
 + 280 x_33 + 280 x_34 + 280 x_35 + 280 x_36 + 280 x_37 + 280 x_38 + 280 x_39
 + 220 x_41 + 220 x_42 + 220 x_43 + 220 x_44 + 220 x_45 + 220 x_46 + 220 x_47
 + 220 x_48 + 220 x_49 + 149 x_51 + 149 x_52 + 149 x_53 + 149 x_54 + 149 x_55
 + 149 x_56 + 149 x_57 + 149 x_58 + 149 x_59 + 122 x_61 + 122 x_62 + 122 x_63
 + 122 x_64 + 122 x_65 + 122 x_66 + 122 x_67 + 122 x_68 + 122 x_69
Subject To
Minimalny_zakres_prac_0: 30 x_11 + 30 x_21 + 10 x_31 + 12 x_41 + 35 x_51
 + 50 x_61 >= 220
Minimalny_zakres_prac_1: 45 x_12 + 20 x_22 + 42 x_32 + 40 x_42 + 41 x_52
 + 45 x_62 >= 90
Minimalny_zakres_prac_2: 23 x_13 + 25 x_23 + 28 x_33 + 13 x_43 + 13 x_53
 + 33 x_63 >= 146
Minimalny_zakres_prac_3: 30 x_14 + 31 x_24 + 31 x_34 + 30 x_44 + 39 x_54
 + 30 x_64 >= 220
Minimalny_zakres_prac_4: 45 x_15 + 12 x_25 + 25 x_35 + 20 x_45 + 23 x_55
 + 21 x_65 >= 300
Minimalny_zakres_prac_5: 23 x_16 + 16 x_26 + 31 x_36 + 21 x_46 + 30 x_56
 + 21 x_66 >= 123
Minimalny_zakres_prac_6: 14 x_17 + 14 x_27 + 14 x_37 + 14 x_47 + 14 x_57
 + 14 x_67 >= 277
Minimalny_zakres_prac_7: 23 x_18 + 23 x_28 + 23 x_38 + 23 x_48 + 23 x_58
 + 23 x_68 >= 210
Minimalny_zakres_prac_8: 23 x_19 + 23 x_29 + 23 x_39 + 23 x_49 + 23 x_59
 + 23 x_69 >= 198
max_ilości_koparek0: x_11 + x_12 + x_13 + x_14 + x_15 + x_16 + x_17 + x_18
 + x_19 <= 10
max_ilości_koparek1: x_21 + x_22 + x_23 + x_24 + x_25 + x_26 + x_27 + x_28
 + x_29 <= 8
max_ilości_koparek2: x_31 + x_32 + x_33 + x_34 + x_35 + x_36 + x_37 + x_38
 + x_39 <= 15
max_ilości_koparek3: x_41 + x_42 + x_43 + x_44 + x_45 + x_46 + x_47 + x_48
 + x_49 <= 11
max_ilości_koparek4: x_51 + x_52 + x_53 + x_54 + x_55 + x_56 + x_57 + x_58
 + x_59 <= 5
max_ilości_koparek5: x_61 + x_62 + x_63 + x_64 + x_65 + x_66 + x_67 + x_68
 + x_69 <= 10
Bounds
0 <= x_11
0 <= x_12
0 <= x_13
0 <= x_14
0 <= x_15
0 <= x_16
0 <= x_17
0 <= x_18
0 <= x_19
0 <= x_21
0 <= x_22
0 <= x_23
0 <= x_24
0 <= x_25
0 <= x_26
0 <= x_27
0 <= x_28
0 <= x_29
0 <= x_31
0 <= x_32
0 <= x_33
0 <= x_34
0 <= x_35
0 <= x_36
0 <= x_37
0 <= x_38
0 <= x_39
0 <= x_41
0 <= x_42
0 <= x_43
0 <= x_44
0 <= x_45
0 <= x_46
0 <= x_47
0 <= x_48
0 <= x_49
0 <= x_51
0 <= x_52
0 <= x_53
0 <= x_54
0 <= x_55
0 <= x_56
0 <= x_57
0 <= x_58
0 <= x_59
0 <= x_61
0 <= x_62
0 <= x_63
0 <= x_64
0 <= x_65
0 <= x_66
0 <= x_67
0 <= x_68
0 <= x_69
Generals
x_11
x_12
x_13
x_14
x_15
x_16
x_17
x_18
x_19
x_21
x_22
x_23
x_24
x_25
x_26
x_27
x_28
x_29
x_31
x_32
x_33
x_34
x_35
x_36
x_37
x_38
x_39
x_41
x_42
x_43
x_44
x_45
x_46
x_47
x_48
x_49
x_51
x_52
x_53
x_54
x_55
x_56
x_57
x_58
x_59
x_61
x_62
x_63
x_64
x_65
x_66
x_67
x_68
x_69
End
